NAME : rbu737
COMMENT : Bonn VLSI data set with 737 points
COMMENT : Uni Bonn, Research Institute for Discrete Math
COMMENT : Contributed by Andre Rohe
TYPE : TSP
DIMENSION : 737
EDGE_WEIGHT_TYPE : EUC_2D
NODE_COORD_SECTION
1 0 13
2 0 25
3 0 37
4 0 38
5 0 49
6 0 50
7 0 56
8 0 61
9 0 62
10 0 74
11 0 86
12 0 98
13 2 18
14 2 20
15 2 24
16 2 26
17 2 49
18 2 51
19 2 52
20 2 55
21 2 57
22 2 67
23 2 68
24 2 74
25 2 90
26 5 102
27 5 106
28 5 12
29 5 24
30 5 26
31 5 31
32 5 37
33 5 41
34 5 46
35 5 52
36 5 71
37 5 8
38 5 95
39 5 98
40 8 38
41 8 49
42 9 12
43 9 49
44 9 5
45 9 52
46 9 8
47 10 10
48 10 23
49 10 50
50 10 54
51 10 56
52 10 6
53 11 14
54 11 23
55 11 49
56 11 56
57 11 70
58 11 80
59 11 93
60 11 96
61 12 103
62 12 28
63 15 106
64 15 11
65 15 24
66 15 26
67 15 31
68 15 37
69 15 41
70 15 46
71 15 51
72 15 55
73 15 7
74 15 71
75 17 68
76 17 74
77 18 90
78 25 39
79 25 41
80 25 45
81 25 47
82 25 49
83 25 56
84 25 74
85 25 95
86 25 97
87 28 100
88 28 103
89 28 105
90 28 14
91 28 18
92 28 23
93 28 29
94 28 33
95 28 47
96 28 61
97 28 64
98 28 68
99 28 72
100 28 8
101 28 86
102 28 90
103 31 15
104 32 26
105 32 29
106 32 33
107 32 45
108 33 27
109 33 31
110 33 45
111 33 73
112 34 102
113 34 35
114 34 45
115 34 59
116 34 62
117 34 73
118 34 84
119 34 91
120 34 99
121 35 5
122 35 69
123 35 87
124 38 100
125 38 103
126 38 105
127 38 14
128 38 18
129 38 23
130 38 28
131 38 32
132 38 72
133 38 8
134 38 90
135 40 49
136 41 56
137 48 102
138 48 22
139 48 6
140 48 73
141 48 75
142 48 86
143 51 27
144 51 30
145 51 34
146 51 38
147 51 42
148 51 48
149 51 52
150 51 57
151 51 63
152 51 67
153 51 78
154 51 81
155 51 83
156 54 49
157 55 60
158 55 63
159 55 67
160 56 61
161 56 65
162 57 12
163 57 25
164 57 28
165 57 69
166 57 77
167 57 80
168 57 92
169 58 35
170 58 39
171 61 38
172 61 42
173 61 48
174 61 52
175 61 57
176 61 62
177 61 66
178 61 78
179 61 81
180 61 83
181 63 6
182 63 86
183 64 102
184 64 111
185 64 22
186 71 13
187 71 15
188 71 28
189 71 30
190 71 32
191 71 34
192 71 36
193 71 38
194 71 40
195 71 42
196 71 44
197 71 46
198 71 48
199 71 50
200 71 52
201 71 54
202 71 57
203 71 59
204 71 61
205 71 63
206 71 65
207 71 67
208 71 69
209 71 71
210 71 74
211 71 81
212 71 96
213 74 103
214 74 105
215 74 18
216 74 21
217 74 23
218 74 29
219 74 33
220 74 37
221 74 41
222 74 45
223 74 49
224 74 53
225 74 58
226 74 62
227 74 66
228 74 70
229 74 8
230 74 86
231 74 89
232 74 93
233 78 27
234 78 56
235 79 27
236 79 56
237 79 95
238 80 102
239 80 17
240 80 20
241 80 27
242 80 56
243 80 84
244 80 87
245 80 9
246 80 95
247 81 5
248 84 103
249 84 105
250 84 18
251 84 21
252 84 23
253 84 8
254 85 96
255 86 74
256 87 81
257 94 100
258 94 18
259 94 20
260 94 31
261 94 47
262 94 98
263 97 103
264 97 12
265 97 23
266 97 26
267 97 28
268 97 52
269 97 55
270 97 59
271 97 63
272 97 67
273 97 73
274 97 77
275 97 8
276 97 82
277 97 88
278 97 92
279 100 74
280 101 12
281 101 5
282 101 8
283 101 85
284 101 88
285 101 92
286 102 10
287 102 6
288 102 86
289 102 90
290 103 102
291 103 14
292 103 22
293 103 25
294 103 37
295 103 50
296 103 53
297 103 94
298 104 60
299 104 64
300 107 103
301 107 11
302 107 23
303 107 26
304 107 28
305 107 63
306 107 67
307 107 7
308 107 73
309 107 77
310 107 82
311 107 87
312 107 91
313 109 31
314 110 47
315 117 39
316 117 41
317 117 52
318 117 68
319 120 103
320 120 14
321 120 18
322 120 23
323 120 29
324 120 33
325 120 44
326 120 47
327 120 49
328 120 73
329 120 76
330 120 8
331 120 80
332 120 84
333 120 88
334 120 94
335 120 98
336 123 15
337 123 95
338 124 26
339 124 29
340 124 33
341 125 27
342 125 31
343 126 35
344 126 43
345 126 46
346 126 58
347 126 71
348 126 74
349 127 5
350 127 81
351 127 85
352 130 103
353 130 14
354 130 18
355 130 23
356 130 28
357 130 32
358 130 44
359 130 47
360 130 49
361 130 8
362 130 84
363 130 88
364 130 94
365 130 98
366 132 52
367 133 68
368 140 18
369 140 34
370 140 52
371 140 53
372 140 54
373 140 56
374 140 57
375 140 60
376 140 61
377 140 76
378 140 92
379 143 10
380 143 100
381 143 104
382 143 13
383 143 15
384 143 39
385 143 42
386 143 46
387 143 50
388 143 66
389 143 68
390 143 71
391 143 73
392 143 8
393 143 97
394 149 12
395 149 24
396 149 37
397 149 40
398 149 67
399 149 70
400 149 82
401 149 9
402 149 95
403 149 98
404 150 47
405 150 5
406 150 63
407 153 10
408 153 13
409 153 15
410 153 50
411 153 66
412 153 68
413 153 71
414 153 73
415 153 8
416 155 18
417 155 53
418 155 54
419 155 57
420 155 60
421 155 76
422 156 34
423 156 92
424 163 13
425 163 6
426 163 64
427 163 66
428 163 77
429 163 93
430 166 101
431 166 105
432 166 18
433 166 21
434 166 25
435 166 29
436 166 33
437 166 39
438 166 43
439 166 48
440 166 54
441 166 58
442 166 69
443 166 72
444 166 74
445 166 98
446 169 40
447 170 51
448 170 54
449 170 58
450 171 52
451 171 56
452 172 16
453 172 19
454 172 60
455 172 68
456 172 71
457 172 83
458 172 96
459 172 99
460 173 26
461 173 30
462 176 29
463 176 33
464 176 39
465 176 43
466 176 48
467 176 53
468 176 57
469 176 69
470 176 72
471 176 74
472 178 6
473 178 77
474 179 13
475 179 93
476 186 13
477 186 15
478 186 26
479 186 42
480 186 93
481 186 95
482 189 101
483 189 103
484 189 18
485 189 21
486 189 23
487 189 47
488 189 50
489 189 54
490 189 58
491 189 62
492 189 68
493 189 72
494 189 77
495 189 8
496 189 83
497 189 87
498 189 98
499 192 69
500 193 80
501 193 83
502 193 87
503 194 81
504 194 85
505 195 100
506 195 17
507 195 20
508 195 32
509 195 45
510 195 48
511 195 89
512 195 9
513 195 97
514 196 5
515 196 55
516 196 59
517 199 101
518 199 103
519 199 18
520 199 21
521 199 23
522 199 58
523 199 62
524 199 68
525 199 72
526 199 77
527 199 8
528 199 82
529 199 86
530 199 98
531 201 26
532 202 42
533 209 100
534 209 102
535 209 11
536 209 18
537 209 32
538 209 33
539 209 37
540 209 38
541 209 41
542 209 42
543 209 43
544 209 48
545 209 57
546 209 58
547 209 62
548 209 63
549 209 66
550 209 67
551 209 68
552 209 73
553 209 75
554 210 35
555 210 60
556 212 105
557 212 23
558 212 26
559 212 30
560 212 6
561 212 8
562 212 80
563 212 86
564 212 90
565 212 94
566 216 87
567 216 90
568 216 94
569 217 50
570 217 88
571 217 92
572 218 104
573 218 21
574 218 24
575 218 5
576 218 96
577 219 77
578 222 105
579 222 6
580 222 8
581 222 80
582 222 86
583 222 89
584 222 93
585 224 11
586 224 32
587 224 38
588 224 41
589 224 48
590 224 57
591 224 63
592 224 66
593 224 73
594 224 75
595 225 18
596 225 36
597 225 42
598 225 61
599 225 67
600 232 42
601 232 43
602 232 45
603 232 59
604 232 60
605 232 87
606 232 94
607 233 46
608 235 102
609 235 106
610 235 8
611 235 84
612 235 99
613 239 76
614 241 10
615 241 100
616 241 76
617 241 83
618 241 97
619 242 5
620 245 8
621 245 84
622 247 59
623 247 87
624 248 41
625 248 47
626 248 60
627 248 94
628 255 102
629 255 104
630 255 22
631 255 24
632 255 35
633 255 51
634 258 12
635 258 16
636 258 27
637 258 30
638 258 32
639 258 56
640 258 59
641 258 63
642 258 67
643 258 71
644 258 77
645 258 8
646 258 81
647 258 86
648 258 92
649 258 96
650 261 78
651 262 12
652 262 16
653 262 89
654 262 9
655 262 92
656 262 96
657 263 10
658 263 14
659 263 90
660 263 94
661 264 18
662 264 26
663 264 29
664 264 41
665 264 54
666 264 57
667 264 98
668 265 5
669 265 64
670 265 68
671 268 11
672 268 15
673 268 27
674 268 30
675 268 32
676 268 67
677 268 71
678 268 77
679 268 8
680 268 81
681 268 86
682 268 91
683 268 95
684 270 35
685 271 51
686 278 13
687 278 6
688 278 64
689 278 66
690 278 77
691 278 93
692 281 101
693 281 105
694 281 18
695 281 21
696 281 25
697 281 29
698 281 33
699 281 39
700 281 43
701 281 48
702 281 54
703 281 58
704 281 69
705 281 72
706 281 74
707 281 98
708 284 40
709 285 51
710 285 54
711 285 58
712 286 52
713 286 56
714 287 16
715 287 19
716 287 60
717 287 68
718 287 71
719 287 83
720 287 96
721 287 99
722 288 26
723 288 30
724 291 29
725 291 33
726 291 39
727 291 43
728 291 48
729 291 53
730 291 57
731 291 69
732 291 72
733 291 74
734 293 6
735 293 77
736 294 13
737 294 93
EOF
